Version identifier: 22.1.0.0 | 2022-03-09 | 1a383f8ce
CPXPARAM_Threads                                 1
CPXPARAM_MIP_Cuts_Gomory                         -1
CPXPARAM_MIP_Strategy_FPHeur                     -1
CPXPARAM_MIP_Limits_EachCutLimit                 0
CPXPARAM_MIP_Pool_Capacity                       0
CPXPARAM_MIP_Cuts_LiftProj                       -1
CPXPARAM_MIP_Limits_Nodes                        0
CPXPARAM_MIP_Strategy_HeuristicFreq              -1
CPXPARAM_MIP_Strategy_RINSHeur                   -1
CPXPARAM_MIP_PolishAfter_Nodes                   0
CPXPARAM_MIP_Tolerances_AbsMIPGap                9.9999999999999998e-13
CPXPARAM_MIP_Tolerances_MIPGap                   9.9999999999999998e-13
CPXPARAM_MIP_Tolerances_Integrality              0
Generic callback                                 0x40
Tried aggregator 1 time.
MIP Presolve eliminated 1 rows and 1 columns.
Reduced MIP has 99 rows, 2549 columns, and 4999 nonzeros.
Reduced MIP has 49 binaries, 0 generals, 0 SOSs, and 0 indicators.
Presolve time = 0.02 sec. (2.22 ticks)
Tried aggregator 1 time.
Detecting symmetries...
Reduced MIP has 99 rows, 2549 columns, and 4999 nonzeros.
Reduced MIP has 49 binaries, 0 generals, 0 SOSs, and 0 indicators.
Presolve time = 0.01 sec. (3.06 ticks)
Probing time = 0.00 sec. (0.19 ticks)
MIP emphasis: balance optimality and feasibility.
MIP search method: dynamic search.
Parallel mode: none, using 1 thread.
Root relaxation solution time = 0.01 sec. (0.57 ticks)

        Nodes                                         Cuts/
   Node  Left     Objective  IInf  Best Integer    Best Bound    ItCnt     Gap

      0     0   648835.0424    49                 648835.0424       52         
      0     0   808341.7390    31               UserPurge2: 49      116         
      0     0   848738.2227    32               UserPurge2: 41      168         
      0     0   872544.4282    20               UserPurge2: 37      208         
      0     0   889324.3605    22               UserPurge2: 34      247         
      0     0   903583.9652    19               UserPurge2: 30      278         
Detecting symmetries...
      0     0   910793.8283    18               UserPurge2: 23      303         
      0     0   915563.0742    11               UserPurge2: 20      322         
      0     0   918805.9935    10               UserPurge2: 16      338         
      0     0   922963.9971     9               UserPurge2: 14      353         
      0     0   924918.3591     6               UserPurge2: 12      365         
      0     0   926006.5533     5               UserPurge2: 8      373         
      0     0   926956.5302     5               UserPurge2: 8      381         
      0     0   928520.4857     3               UserPurge2: 6      387         
      0     0   928684.9444     2               UserPurge2: 3      390         
      0     0   928830.2467     1               UserPurge2: 2      392         
      0     0   928909.4978     1               UserPurge2: 1      393         
*     0     0      integral     0   928941.7500 UserPurge2: 1      394    0.00%
      0     0        cutoff         928941.7500   928941.7500      394    0.00%
Elapsed time = 0.13 sec. (32.58 ticks, tree = 0.01 MB)

User cuts applied:  304

Root node processing (before b&c):
  Real time             =    0.13 sec. (32.65 ticks)
Sequential b&c:
  Real time             =    0.00 sec. (0.00 ticks)
                          ------------
Total (root+branch&cut) =    0.13 sec. (32.65 ticks)
1.34e-01
{1-0-0-0.0063} t = 1.00e-06 ~ D*_1( z* ) = 2.50e+01 ~ Sigma = 0.00e+00
            Fi undefined
            [0.0309] Fi1 = 4.9000000000e-05
            Fi1 defined ==> SS 

{1-1-50-0.0436} t = 1.00e+02 ~ D*_1( z* ) = 2.45e+01 ~ Sigma = 0.00e+00
            Fi = 4.9000000000e-05 ~ eU = 2.45e+05
            [0.0645] Fi1 = 4.9000000490e+03

 SS[0]: DFi = 4.90e+03 ~ Lw1(4.9000000490e+03) >= LwTrgt(4.9000049000e+01)

{1-2-50-0.0804} t = 1.50e+02 ~ D*_1( z* ) = 2.45e+01 ~ Sigma = 0.00e+00
            Fi = 4.9000000490e+03 ~ eU = 5.00e+01
            [0.0981] Fi1 = 1.2250000049e+04

 SS[0]: DFi = 7.35e+03 ~ Lw1(1.2250000049e+04) >= LwTrgt(4.9735000490e+03)

{1-3-50-0.1173} t = 2.25e+02 ~ D*_1( z* ) = 2.45e+01 ~ Sigma = 0.00e+00
            Fi = 1.2250000049e+04 ~ eU = 2.00e+01
            [0.1307] Fi1 = 2.3275000049e+04

 SS[0]: DFi = 1.10e+04 ~ Lw1(2.3275000049e+04) >= LwTrgt(1.2360250049e+04)

{1-4-50-0.1523} t = 3.38e+02 ~ D*_1( z* ) = 2.45e+01 ~ Sigma = 0.00e+00
            Fi = 2.3275000049e+04 ~ eU = 1.05e+01
            [0.1637] Fi1 = 3.9780900048e+04

 SS[0]: DFi = 1.65e+04 ~ Lw1(3.9780900048e+04) >= LwTrgt(2.3440375049e+04)

{1-5-51-0.1893} t = 5.06e+02 ~ D*_1( z* ) = 2.40e+01 ~ Sigma = 0.00e+00
            Fi = 3.9780900048e+04 ~ eU = 6.03e+00
            [0.1973] Fi1 = 6.3505250046e+04

 SS[0]: DFi = 2.37e+04 ~ Lw1(6.3505250046e+04) >= LwTrgt(4.0023900048e+04)

{1-6-52-0.2256} t = 7.59e+02 ~ D*_1( z* ) = 2.30e+01 ~ Sigma = 4.55e-13
            Fi = 6.3505250046e+04 ~ eU = 3.62e+00
            [0.2388] Fi1 = 9.7277325044e+04

 SS[0]: DFi = 3.38e+04 ~ Lw1(9.7277325044e+04) >= LwTrgt(6.3854562546e+04)

{1-7-53-0.2696} t = 1.14e+03 ~ D*_1( z* ) = 2.20e+01 ~ Sigma = -9.09e-13
            Fi = 9.7277325044e+04 ~ eU = 2.26e+00
            [0.2716] Fi1 = 1.4292330004e+05

 SS[0]: DFi = 4.56e+04 ~ Lw1(1.4292330004e+05) >= LwTrgt(9.7778512544e+04)

{1-8-54-0.3051} t = 1.71e+03 ~ D*_1( z* ) = 1.90e+01 ~ Sigma = -3.64e-12
            Fi = 1.4292330004e+05 ~ eU = 1.33e+00
            [0.3052] Fi1 = 2.0398206253e+05

 SS[0]: DFi = 6.11e+04 ~ Lw1(2.0398206253e+05) >= LwTrgt(1.4357256566e+05)

{1-9-55-0.3415} t = 2.56e+03 ~ D*_1( z* ) = 1.70e+01 ~ Sigma = 7.28e-12
            Fi = 2.0398206253e+05 ~ eU = 8.33e-01
            [0.3398] Fi1 = 2.8179079378e+05

 SS[0]: DFi = 7.78e+04 ~ Lw1(2.8179079378e+05) >= LwTrgt(2.0485344535e+05)

{1-10-56-0.3787} t = 3.84e+03 ~ D*_1( z* ) = 1.30e+01 ~ Sigma = 2.91e-11
            Fi = 2.8179079378e+05 ~ eU = 4.61e-01
            [0.3741] Fi1 = 3.7347531874e+05

 SS[0]: DFi = 9.17e+04 ~ Lw1(3.7347531874e+05) >= LwTrgt(2.8279032112e+05)

{1-11-59-0.4159} t = 5.77e+03 ~ D*_1( z* ) = 1.05e+01 ~ Sigma = 3.43e+03
            Fi = 3.7347531874e+05 ~ eU = 2.90e-01
            [0.3917] Fi1 = -INF

 NS[0]: Up1(4.4647527442e+05) <= UpTrgt(4.6042302247e+05)

{1-12-65-0.4358} t = 5.77e+03 ~ D*_1( z* ) = 8.40e+00 ~ Sigma = 1.11e+04
            Fi = 3.7347531874e+05 ~ eU = 2.55e-01
            [0.4273] Fi1 = 4.6576641573e+05

 SS[0]: DFi = 9.23e+04 ~ Lw1(4.6576641573e+05) >= LwTrgt(3.7455453548e+05)

{1-13-70-0.4741} t = 8.65e+03 ~ D*_1( z* ) = 7.08e+00 ~ Sigma = 1.09e+04
            Fi = 4.6576641573e+05 ~ eU = 1.75e-01
            [0.4383] Fi1 = -INF

 NS[0]: Up1(5.2559202666e+05) <= UpTrgt(5.5913153335e+05)

{1-14-80-0.4881} t = 8.65e+03 ~ D*_1( z* ) = 6.22e+00 ~ Sigma = 1.51e+04
            Fi = 4.6576641573e+05 ~ eU = 1.66e-01
            [0.4605] Fi1 = -INF

 NS[1]: Up1(5.4480980969e+05) <= UpTrgt(5.5158716438e+05)

{1-15-86-0.5132} t = 5.71e+03 ~ D*_1( z* ) = 6.14e+00 ~ Sigma = 1.50e+04
            Fi = 4.6576641573e+05 ~ eU = 1.64e-01
            [0.4957] Fi1 = 5.3547358839e+05

 SS[0]: DFi = 6.97e+04 ~ Lw1(5.3547358839e+05) >= LwTrgt(4.6661736484e+05)

{1-16-93-0.5512} t = 8.56e+03 ~ D*_1( z* ) = 4.60e+00 ~ Sigma = 1.35e+04
            Fi = 5.3547358839e+05 ~ eU = 1.11e-01
            [0.5202] Fi1 = -INF

 NS[0]: Up1(5.8752648862e+05) <= UpTrgt(6.0011601630e+05)

{1-17-102-0.5785} t = 8.56e+03 ~ D*_1( z* ) = 4.27e+00 ~ Sigma = 1.52e+04
            Fi = 5.3547358839e+05 ~ eU = 1.08e-01
            [0.5342] Fi1 = -INF

 NS[1]: Up1(5.9656537232e+05) <= UpTrgt(5.9724943778e+05)

{1-18-106-0.5951} t = 5.65e+03 ~ D*_1( z* ) = 4.11e+00 ~ Sigma = 1.44e+04
            Fi = 5.3547358839e+05 ~ eU = 1.04e-01
            [0.5696] Fi1 = 5.8490137044e+05

 SS[0]: DFi = 4.94e+04 ~ Lw1(5.8490137044e+05) >= LwTrgt(5.3608245014e+05)

{1-19-113-0.6335} t = 8.48e+03 ~ D*_1( z* ) = 3.80e+00 ~ Sigma = 9.62e+03
            Fi = 5.8490137044e+05 ~ eU = 8.14e-02
            [0.5919] Fi1 = -INF

 NS[0]: Up1(6.3638717955e+05) <= UpTrgt(6.3674514793e+05)

{1-20-121-0.6588} t = 8.48e+03 ~ D*_1( z* ) = 3.28e+00 ~ Sigma = 1.27e+04
            Fi = 5.8490137044e+05 ~ eU = 7.77e-02
            [0.6237] Fi1 = -INF

 NS[1]: Up1(6.3062558835e+05) <= UpTrgt(6.3267324195e+05)

{1-21-130-0.6963} t = 5.60e+03 ~ D*_1( z* ) = 3.53e+00 ~ Sigma = 1.01e+04
            Fi = 5.8490137044e+05 ~ eU = 7.76e-02
            [0.6588] Fi1 = 6.2096585415e+05

 SS[0]: DFi = 3.61e+04 ~ Lw1(6.2096585415e+05) >= LwTrgt(5.8539727236e+05)

{1-22-138-0.7346} t = 8.39e+03 ~ D*_1( z* ) = 2.75e+00 ~ Sigma = 1.14e+04
            Fi = 6.2096585415e+05 ~ eU = 6.26e-02
            [0.6787] Fi1 = -INF

 NS[0]: Up1(6.6053244365e+05) <= UpTrgt(6.6124979955e+05)

{1-23-145-0.7577} t = 8.39e+03 ~ D*_1( z* ) = 2.64e+00 ~ Sigma = 1.07e+04
            Fi = 6.2096585415e+05 ~ eU = 5.98e-02
            [0.7158] Fi1 = 6.5885748462e+05

 SS[0]: DFi = 3.79e+04 ~ Lw1(6.5885748462e+05) >= LwTrgt(6.2151654979e+05)

{1-24-154-0.7979} t = 1.26e+04 ~ D*_1( z* ) = 1.83e+00 ~ Sigma = 1.49e+04
            Fi = 6.5885748462e+05 ~ eU = 5.04e-02
            [0.7452] Fi1 = -INF

 NS[0]: Up1(6.9350868007e+05) <= UpTrgt(7.0154671537e+05)

{1-25-164-0.8304} t = 1.26e+04 ~ D*_1( z* ) = 1.77e+00 ~ Sigma = 1.47e+04
            Fi = 6.5885748462e+05 ~ eU = 4.92e-02
            [0.7670] Fi1 = -INF

 NS[1]: Up1(6.9803139510e+05) <= UpTrgt(7.0036826611e+05)

{1-26-170-0.8559} t = 8.31e+03 ~ D*_1( z* ) = 1.74e+00 ~ Sigma = 1.37e+04
            Fi = 6.5885748462e+05 ~ eU = 4.71e-02
            [0.8029] Fi1 = 6.8921133608e+05

 SS[0]: DFi = 3.04e+04 ~ Lw1(6.8921133608e+05) >= LwTrgt(6.5928305217e+05)

{1-27-177-0.8952} t = 1.25e+04 ~ D*_1( z* ) = 1.62e+00 ~ Sigma = 1.03e+04
            Fi = 6.8921133608e+05 ~ eU = 3.84e-02
            [0.8307] Fi1 = -INF

 NS[0]: Up1(7.2437430375e+05) <= UpTrgt(7.2465660729e+05)

{1-28-183-0.9262} t = 1.25e+04 ~ D*_1( z* ) = 1.57e+00 ~ Sigma = 9.77e+03
            Fi = 6.8921133608e+05 ~ eU = 3.70e-02
            [0.8677] Fi1 = 7.2643459389e+05

 SS[0]: DFi = 3.72e+04 ~ Lw1(7.2643459389e+05) >= LwTrgt(6.8970133559e+05)

{1-29-189-0.9664} t = 1.87e+04 ~ D*_1( z* ) = 1.55e+00 ~ Sigma = 1.00e+04
            Fi = 7.2643459389e+05 ~ eU = 3.52e-02
            [0.9046] Fi1 = 7.7343351030e+05

 SS[0]: DFi = 4.70e+04 ~ Lw1(7.7343351030e+05) >= LwTrgt(7.2711523864e+05)

{1-30-194-1.0069} t = 2.80e+04 ~ D*_1( z* ) = 1.53e+00 ~ Sigma = 1.87e+04
            Fi = 7.7343351030e+05 ~ eU = 4.40e-02
            [0.9317] Fi1 = -INF

 NS[0]: Up1(8.4471274869e+05) <= UpTrgt(8.4674409031e+05)

{1-31-199-1.0376} t = 2.80e+04 ~ D*_1( z* ) = 1.25e+00 ~ Sigma = 2.29e+04
            Fi = 7.7343351030e+05 ~ eU = 4.58e-02
            [0.9665] Fi1 = 8.4225820536e+05

 SS[0]: DFi = 6.88e+04 ~ Lw1(8.4225820536e+05) >= LwTrgt(7.7436384596e+05)

{1-32-208-1.0761} t = 4.21e+04 ~ D*_1( z* ) = 1.02e+00 ~ Sigma = 1.93e+04
            Fi = 8.4225820536e+05 ~ eU = 3.50e-02
            [0.9823] Fi1 = -INF

 NS[0]: Up1(8.9905581966e+05) <= UpTrgt(9.1575686912e+05)

{1-33-209-1.0959} t = 4.21e+04 ~ D*_1( z* ) = 7.51e-01 ~ Sigma = 2.89e+04
            Fi = 8.4225820536e+05 ~ eU = 4.32e-02
            [1.0179] Fi1 = 9.0682524896e+05

 SS[0]: DFi = 6.46e+04 ~ Lw1(9.0682524896e+05) >= LwTrgt(8.4317872862e+05)

{1-34-216-1.1353} t = 6.31e+04 ~ D*_1( z* ) = 3.41e-02 ~ Sigma = 2.64e+04
            Fi = 9.0682524896e+05 ~ eU = 2.95e-02
            [1.0271] Fi1 = -INF

 NS[0]: Up1(9.2500200061e+05) <= UpTrgt(9.2830227826e+05)

{1-35-211-1.1493} t = 6.31e+04 ~ D*_1( z* ) = 2.32e-02 ~ Sigma = 2.68e+04
            Fi = 9.0682524896e+05 ~ eU = 2.98e-02
            [1.0450] Fi1 = -INF

 NS[1]: Up1(9.1457752011e+05) <= UpTrgt(9.2761675278e+05)

{1-36-210-1.1709} t = 4.16e+04 ~ D*_1( z* ) = 2.24e-02 ~ Sigma = 2.52e+04
            Fi = 9.0682524896e+05 ~ eU = 2.80e-02
            [1.0652] Fi1 = -INF

 NS[0]: Up1(9.2322679140e+05) <= UpTrgt(9.2576800477e+05)

{1-37-210-1.1952} t = 4.16e+04 ~ D*_1( z* ) = 1.67e-02 ~ Sigma = 2.49e+04
            Fi = 9.0682524896e+05 ~ eU = 2.76e-02
            [1.0830] Fi1 = -INF

 NS[1]: Up1(9.2428057311e+05) <= UpTrgt(9.2522102739e+05)

{1-38-209-1.2166} t = 2.75e+04 ~ D*_1( z* ) = 3.04e-02 ~ Sigma = 2.41e+04
            Fi = 9.0682524896e+05 ~ eU = 2.69e-02
            [1.1188] Fi1 = 9.1948511468e+05

 SS[0]: DFi = 1.27e+04 ~ Lw1(9.1948511468e+05) >= LwTrgt(9.0708260195e+05)

{1-39-212-1.2565} t = 4.12e+04 ~ D*_1( z* ) = 6.24e-03 ~ Sigma = 1.11e+04
            Fi = 9.1948511468e+05 ~ eU = 1.22e-02
            [1.1539] Fi1 = 9.2238353361e+05

 SS[0]: DFi = 2.90e+03 ~ Lw1(9.2238353361e+05) >= LwTrgt(9.1960155804e+05) ~ small D*_t( 1 )

{1-40-215-1.2954} t = 4.12e+04 ~ D*_1( z* ) = 4.06e-03 ~ Sigma = 8.22e+03
            Fi = 9.2238353361e+05 ~ eU = 8.95e-03
            [1.1911] Fi1 = 9.2308658166e+05

 SS[1]: DFi = 7.03e+02 ~ Lw1(9.2308658166e+05) >= LwTrgt(9.2246904512e+05) ~ small D*_t( 1 )

{1-41-217-1.3367} t = 4.12e+04 ~ D*_1( z* ) = 3.32e-03 ~ Sigma = 7.38e+03
            Fi = 9.2308658166e+05 ~ eU = 8.03e-03
            [1.2263] Fi1 = 9.2221183810e+05

 NS[0]: DFi = -8.75e+02 ~ Up1(9.2221183810e+05) <= UpTrgt(9.2844267996e+05)

{1-42-214-1.3763} t = 4.12e+04 ~ D*_1( z* ) = 3.59e-03 ~ Sigma = 7.17e+03
            Fi = 9.2308658166e+05 ~ eU = 7.81e-03
            [1.2617] Fi1 = 9.2398844771e+05

 SS[0]: DFi = 9.02e+02 ~ Lw1(9.2398844771e+05) >= LwTrgt(9.2316128804e+05) ~ small D*_t( 1 )

{1-43-216-1.4153} t = 4.12e+04 ~ D*_1( z* ) = 4.26e-03 ~ Sigma = 6.05e+03
            Fi = 9.2398844771e+05 ~ eU = 6.60e-03
            [1.2907] Fi1 = -INF

 NS[0]: Up1(9.2824537107e+05) <= UpTrgt(9.2847182940e+05)

{1-44-216-1.4505} t = 4.12e+04 ~ D*_1( z* ) = 3.69e-03 ~ Sigma = 6.03e+03
            Fi = 9.2398844771e+05 ~ eU = 6.57e-03
            [1.3003] Fi1 = -INF

 NS[1]: Up1(9.2527458038e+05) <= UpTrgt(9.2842220816e+05)

{1-45-209-1.4637} t = 2.72e+04 ~ D*_1( z* ) = 6.88e-03 ~ Sigma = 5.84e+03
            Fi = 9.2398844771e+05 ~ eU = 6.39e-03
            [1.3367] Fi1 = 9.2514270540e+05

 SS[0]: DFi = 1.15e+03 ~ Lw1(9.2514270540e+05) >= LwTrgt(9.2405056746e+05)

{1-46-206-1.5041} t = 4.08e+04 ~ D*_1( z* ) = 2.45e-03 ~ Sigma = 4.77e+03
            Fi = 9.2514270540e+05 ~ eU = 5.18e-03
            [1.3717] Fi1 = -INF

 NS[0]: Up1(9.2860636427e+05) <= UpTrgt(9.2861983508e+05)

{1-47-203-1.5431} t = 4.08e+04 ~ D*_1( z* ) = 2.55e-03 ~ Sigma = 4.74e+03
            Fi = 9.2514270540e+05 ~ eU = 5.15e-03
            [1.3783] Fi1 = -INF

 NS[1]: Up1(9.2659666691e+05) <= UpTrgt(9.2860640508e+05)

{1-48-204-1.5533} t = 2.69e+04 ~ D*_1( z* ) = 6.20e-03 ~ Sigma = 4.54e+03
            Fi = 9.2514270540e+05 ~ eU = 4.97e-03
            [1.4090] Fi1 = -INF

 NS[0]: Up1(9.2525466444e+05) <= UpTrgt(9.2855395395e+05)

{1-49-201-1.5878} t = 2.69e+04 ~ D*_1( z* ) = 6.27e-03 ~ Sigma = 4.39e+03
            Fi = 9.2514270540e+05 ~ eU = 4.82e-03
            [1.4447] Fi1 = 9.2624948405e+05

 SS[0]: DFi = 1.11e+03 ~ Lw1(9.2624948405e+05) >= LwTrgt(9.2519002894e+05)

{1-50-200-1.6271} t = 4.04e+04 ~ D*_1( z* ) = 2.17e-03 ~ Sigma = 3.34e+03
            Fi = 9.2624948405e+05 ~ eU = 3.63e-03
            [1.4799] Fi1 = 9.2468653967e+05

 NS[0]: DFi = -1.56e+03 ~ Up1(9.2468653967e+05) <= UpTrgt(9.2871258054e+05)

{1-51-199-1.6661} t = 4.04e+04 ~ D*_1( z* ) = 1.54e-03 ~ Sigma = 3.26e+03
            Fi = 9.2624948405e+05 ~ eU = 3.54e-03
            [1.5154] Fi1 = 9.2722213865e+05

 SS[0]: DFi = 9.73e+02 ~ Lw1(9.2722213865e+05) >= LwTrgt(9.2628332376e+05) ~ small D*_t( 1 )

{1-52-195-1.7053} t = 4.04e+04 ~ D*_1( z* ) = 8.08e-04 ~ Sigma = 2.32e+03
            Fi = 9.2722213865e+05 ~ eU = 2.51e-03
            [1.5509] Fi1 = 9.2797358261e+05

 SS[1]: DFi = 7.51e+02 ~ Lw1(9.2797358261e+05) >= LwTrgt(9.2724602411e+05) ~ small D*_t( 1 )

{1-53-190-1.7468} t = 4.04e+04 ~ D*_1( z* ) = 6.58e-04 ~ Sigma = 1.58e+03
            Fi = 9.2797358261e+05 ~ eU = 1.71e-03
            [1.5857] Fi1 = 9.2729889155e+05

 NS[0]: DFi = -6.75e+02 ~ Up1(9.2729889155e+05) <= UpTrgt(9.2912010357e+05)

{1-54-184-1.7854} t = 4.04e+04 ~ D*_1( z* ) = 1.41e-03 ~ Sigma = 1.49e+03
            Fi = 9.2797358261e+05 ~ eU = 1.62e-03
            [1.6212] Fi1 = 9.2687778132e+05

 NS[1]: DFi = -1.10e+03 ~ Up1(9.2687778132e+05) <= UpTrgt(9.2909697162e+05)

{1-55-168-1.8266} t = 2.67e+04 ~ D*_1( z* ) = 3.18e-03 ~ Sigma = 1.30e+03
            Fi = 9.2797358261e+05 ~ eU = 1.44e-03
            [1.6570] Fi1 = 9.2662284300e+05

 NS[0]: DFi = -1.35e+03 ~ Up1(9.2662284300e+05) <= UpTrgt(9.2900345929e+05)

{1-56-167-1.8658} t = 2.67e+04 ~ D*_1( z* ) = 2.03e-03 ~ Sigma = 1.21e+03
            Fi = 9.2797358261e+05 ~ eU = 1.33e-03
            [1.6943] Fi1 = 9.2682989687e+05

 NS[1]: DFi = -1.14e+03 ~ Up1(9.2682989687e+05) <= UpTrgt(9.2889793569e+05)

{1-57-162-1.9065} t = 1.76e+04 ~ D*_1( z* ) = 1.57e-03 ~ Sigma = 1.20e+03
            Fi = 9.2797358261e+05 ~ eU = 1.31e-03
            [1.7309] Fi1 = 9.2823338209e+05

 SS[0]: DFi = 2.60e+02 ~ Lw1(9.2823338209e+05) >= LwTrgt(9.2798610185e+05)

{1-58-158-1.9467} t = 2.64e+04 ~ D*_1( z* ) = 7.18e-04 ~ Sigma = 9.55e+02
            Fi = 9.2823338209e+05 ~ eU = 1.04e-03
            [1.7670] Fi1 = 9.2760899314e+05

 NS[0]: DFi = -6.24e+02 ~ Up1(9.2760899314e+05) <= UpTrgt(9.2892834690e+05)

{1-59-156-1.9859} t = 2.64e+04 ~ D*_1( z* ) = 2.75e-04 ~ Sigma = 9.48e+02
            Fi = 9.2823338209e+05 ~ eU = 1.02e-03
            [1.8025] Fi1 = 9.2878334215e+05

 SS[0]: DFi = 5.50e+02 ~ Lw1(9.2878334215e+05) >= LwTrgt(9.2824301150e+05) ~ small D*_t( 1 )

{1-60-145-2.0251} t = 2.64e+04 ~ D*_1( z* ) = 9.47e-05 ~ Sigma = 4.08e+02
            Fi = 9.2878334215e+05 ~ eU = 4.40e-04
            [1.8380] Fi1 = 9.2865910796e+05

 NS[0]: DFi = -1.24e+02 ~ Up1(9.2865910796e+05) <= UpTrgt(9.2907254155e+05)

{1-61-142-2.0638} t = 2.64e+04 ~ D*_1( z* ) = 3.74e-04 ~ Sigma = 3.91e+02
            Fi = 9.2878334215e+05 ~ eU = 4.24e-04
            [1.8476] Fi1 = -INF

 NS[1]: Up1(9.2890786984e+05) <= UpTrgt(9.2907052093e+05)

{1-62-138-2.0763} t = 1.74e+04 ~ D*_1( z* ) = 2.74e-04 ~ Sigma = 3.85e+02
            Fi = 9.2878334215e+05 ~ eU = 4.18e-04
            [1.8785] Fi1 = -INF

 NS[0]: Up1(9.2853762166e+05) <= UpTrgt(9.2905978485e+05)

{1-63-134-2.1105} t = 1.74e+04 ~ D*_1( z* ) = 7.29e-04 ~ Sigma = 3.51e+02
            Fi = 9.2878334215e+05 ~ eU = 3.86e-04
            [1.9153] Fi1 = 9.2813558594e+05

 NS[1]: DFi = -6.48e+02 ~ Up1(9.2813558594e+05) <= UpTrgt(9.2904675448e+05)

{1-64-128-2.1505} t = 1.15e+04 ~ D*_1( z* ) = 2.21e-04 ~ Sigma = 3.51e+02
            Fi = 9.2878334215e+05 ~ eU = 3.80e-04
            [1.9516] Fi1 = 9.2890558820e+05

 SS[0]: DFi = 1.22e+02 ~ Lw1(9.2890558820e+05) >= LwTrgt(9.2878689839e+05) ~ small D*_t( 1 )

{1-65-126-2.1902} t = 1.15e+04 ~ D*_1( z* ) = 4.55e-04 ~ Sigma = 2.13e+02
            Fi = 9.2890558820e+05 ~ eU = 2.35e-04
            [1.9891] Fi1 = 9.2867678819e+05

 NS[0]: DFi = -2.29e+02 ~ Up1(9.2867678819e+05) <= UpTrgt(9.2906235468e+05)

{1-66-127-2.2307} t = 1.15e+04 ~ D*_1( z* ) = 6.79e-04 ~ Sigma = 2.04e+02
            Fi = 9.2890558820e+05 ~ eU = 2.26e-04
            [2.0261] Fi1 = 9.2853654144e+05

 NS[1]: DFi = -3.69e+02 ~ Up1(9.2853654144e+05) <= UpTrgt(9.2905897893e+05)

{1-67-121-2.2708} t = 7.59e+03 ~ D*_1( z* ) = 8.05e-04 ~ Sigma = 1.92e+02
            Fi = 9.2890558820e+05 ~ eU = 2.15e-04
            [2.0637] Fi1 = 9.2869327761e+05

 NS[0]: DFi = -2.12e+02 ~ Up1(9.2869327761e+05) <= UpTrgt(9.2904846767e+05)

{1-68-118-2.3114} t = 7.59e+03 ~ D*_1( z* ) = 1.15e-03 ~ Sigma = 1.79e+02
            Fi = 9.2890558820e+05 ~ eU = 2.05e-04
            [2.1008] Fi1 = 9.2863374293e+05

 NS[1]: DFi = -2.72e+02 ~ Up1(9.2863374293e+05) <= UpTrgt(9.2904311347e+05)

{1-69-116-2.3517} t = 5.01e+03 ~ D*_1( z* ) = 9.26e-04 ~ Sigma = 1.74e+02
            Fi = 9.2890558820e+05 ~ eU = 1.97e-04
            [2.1360] Fi1 = 9.2882905240e+05

 NS[0]: DFi = -7.65e+01 ~ Up1(9.2882905240e+05) <= UpTrgt(9.2903358281e+05)

{1-70-111-2.3904} t = 5.01e+03 ~ D*_1( z* ) = 1.14e-03 ~ Sigma = 1.66e+02
            Fi = 9.2890558820e+05 ~ eU = 1.91e-04
            [2.1716] Fi1 = 9.2883256724e+05

 NS[1]: DFi = -7.30e+01 ~ Up1(9.2883256724e+05) <= UpTrgt(9.2902993729e+05)

{1-71-108-2.4313} t = 3.31e+03 ~ D*_1( z* ) = 1.48e-03 ~ Sigma = 1.61e+02
            Fi = 9.2890558820e+05 ~ eU = 1.89e-04
            [2.2099] Fi1 = 9.2893037475e+05

 SS[0]: DFi = 2.48e+01 ~ Lw1(9.2893037475e+05) >= LwTrgt(9.2890729617e+05)

{1-72-104-2.4731} t = 4.96e+03 ~ D*_1( z* ) = 1.08e-03 ~ Sigma = 1.30e+02
            Fi = 9.2893037475e+05 ~ eU = 1.51e-04
            [2.2473] Fi1 = 9.2879698593e+05

 NS[0]: DFi = -1.33e+02 ~ Up1(9.2879698593e+05) <= UpTrgt(9.2902878893e+05)

{1-73-104-2.5136} t = 4.96e+03 ~ D*_1( z* ) = 9.23e-04 ~ Sigma = 1.23e+02
            Fi = 9.2893037475e+05 ~ eU = 1.42e-04
            [2.2836] Fi1 = 9.2888961724e+05

 NS[1]: DFi = -4.08e+01 ~ Up1(9.2888961724e+05) <= UpTrgt(9.2902287931e+05)

{1-74-104-2.5529} t = 3.27e+03 ~ D*_1( z* ) = 1.04e-03 ~ Sigma = 1.11e+02
            Fi = 9.2893037475e+05 ~ eU = 1.31e-04
            [2.3202] Fi1 = 9.2894175000e+05

 SS[0]: DFi = 1.14e+01 ~ Lw1(9.2894175000e+05) >= LwTrgt(9.2893155503e+05)

{1-75-105-2.5924} t = 4.91e+03 ~ D*_1( z* ) = 0.00e+00 ~ Sigma = -6.30e-10
            Fi = 9.2894175000e+05 ~ eU = -6.78e-16 ~ stop (optimal)

Call 1: 76 ~ 3224 ~ 2.5925 ~ 2.3202 -> optimal ~ Fi* = 9.2894175000e+05
 - 2.60e+00 - OK(f)
[32mAll tests passed!![0m
